
%FILE DATA:	Soccer Computational Problem for MiniZinc Models	%
%AUTHOR:	Jack Wall	%
%CONTACT:  	116397063@umail.ucc.ie			%
%LAST UPDATE:	03/03/2020, 12:08:58						%
%DESCRIPTION: 	32 games played with 24 games left				%


n=8; %number of teams

%Games to play
games=[|5,3|8,3|4,6|3,7|4,7|6,8|2,1|8,5|4,1|2,7|4,8|3,5|7,8|6,2|5,7|1,8|6,4|8,6|6,7|3,4|4,3|1,3|2,4|2,6|];

%Initial points
iPoints=[12,9,16,9,16,6,8,11];

%POSITION CONSTRAINTS
% [|teamID, operator, position|...]
% operators index:
%  1 for =  operator
%  2 for >  operator
%  3 for >= operator
%  4 for <  operator
%  5 for <= operator
positionConstraints=[|3,3,1|4,2,1|];